NAME          BLANK   
ROWS
 N  OBJROW
 L  R0000000
COLUMNS
    C0000000  OBJROW     -550.         R0000000  959.        
    C0000001  OBJROW     -277.         R0000000  778.        
    C0000002  OBJROW     -541.         R0000000  59.         
    C0000003  OBJROW     -138.         R0000000  127.        
    C0000004  OBJROW     -617.         R0000000  77.         
    C0000005  OBJROW     -543.         R0000000  51.         
    C0000006  OBJROW     -969.         R0000000  845.        
    C0000007  OBJROW     -530.         R0000000  767.        
    C0000008  OBJROW     -857.         R0000000  204.        
    C0000009  OBJROW     -397.         R0000000  304.        
    C0000010  OBJROW     -649.         R0000000  274.        
    C0000011  OBJROW     -760.         R0000000  650.        
RHS
    RHS       R0000000  13735.      
BOUNDS
 BV BOUND     C0000000  1.          
 BV BOUND     C0000001  1.          
 BV BOUND     C0000002  1.          
 BV BOUND     C0000003  1.          
 BV BOUND     C0000004  1.          
 BV BOUND     C0000005  1.          
 BV BOUND     C0000006  1.          
 BV BOUND     C0000007  1.          
 BV BOUND     C0000008  1.          
 BV BOUND     C0000009  1.          
 BV BOUND     C0000010  1.          
 BV BOUND     C0000011  1.          
ENDATA
